p cnf 3625 3197
c ind 1144 1145 1146 1147 1148 1149 1150 1151 1152 1153 0
c ind 1154 1155 1156 1157 1158 1159 1160 1161 1162 1163 0
c ind 1164 1165 1166 1167 1168 1169 1170 1171 1172 1173 0
c ind 1174 1175 1176 1177 1178 1179 1180 1181 1275 1276 0
c ind 1277 1278 1279 1280 1281 1282 1283 1284 1285 1286 0
c ind 1287 1288 1289 1290 1291 1292 1293 1294 1295 1296 0
c ind 1297 1298 1299 1300 1301 1302 1303 1304 1305 1306 0
c ind 1307 1308 1309 1310 1311 1312 1313 1314 1315 1316 0
c ind 1317 1318 1319 1320 1321 1322 1323 1324 1325 1326 0
c ind 1327 1328 1329 1330 1331 1332 1333 1334 1335 1336 0
c ind 1337 1338 1339 1340 1341 1342 1343 1416 1417 1418 0
c ind 1419 1420 1421 1422 1423 1424 1425 1426 1427 1428 0
c ind 1429 1430 1431 1432 1433 1434 1435 1436 1437 1438 0
c ind 1439 1440 1441 1442 1443 1444 1445 1446 1447 1448 0
c ind 1449 1450 1451 1452 1453 1454 1455 1456 1457 1458 0
c ind 1459 1460 1461 1462 1463 1464 1465 1466 1467 1468 0
c ind 1469 1470 1471 1472 1473 1474 1475 1476 1477 1478 0
c ind 1479 1480 1481 1482 1483 1484 1849 1850 1851 1852 0
c ind 1853 1854 1855 1856 1857 1858 1859 1860 1861 1862 0
c ind 1863 1864 1865 1866 1848 1867 1868 1414 1415 1802 0
c ind 1803 1869 1804 1805 1806 1807 1808 1809 1810 1811 0
c ind 1812 1813 1814 1815 1816 1817 1818 1819 1820 1821 0
c ind 1822 1823 1824 1779 1870 1871 1780 1781 1782 1872 0
c ind 1783 1873 1784 1785 1786 1787 1788 1789 1790 1568 0
c ind 1791 1792 1793 1794 1795 1796 1797 1798 1799 1800 0
c ind 1874 1875 1801 1825 1876 1826 1877 1827 1828 1829 0
c ind 1830 1831 1832 1833 1834 1835 1836 1837 1838 1839 0
c ind 1840 1878 1841 1842 1843 1844 1845 1846 1847 1879 0
c ind 1880 1390 1881 1391 1882 1392 1393 1394 1395 1396 0
c ind 1569 1397 1398 1399 1400 1401 1402 1403 1404 1405 0
c ind 1883 1406 1407 1408 1409 1410 1884 1411 1885 1412 0
c ind 1485 1486 1487 1886 1887 1488 1489 1490 1491 1492 0
c ind 1493 1494 1495 1496 1497 1498 1499 1500 1501 1502 0
c ind 1888 1503 1889 1504 1505 1506 1890 1507 1891 1929 0
c ind 1777 1930 1931 1932 1933 1934 1935 1936 1937 1938 0
c ind 1939 1940 1941 1942 1892 1943 1944 1945 1893 1946 0
c ind 1894 1947 1948 1895 1896 1949 1950 1951 1952 1953 0
c ind 1954 1955 1956 1957 1958 1959 1960 1897 1898 1961 0
c ind 1962 1963 1964 1899 1965 1966 1967 1968 1969 1970 0
c ind 1971 1972 1973 1344 1345 1346 1347 1348 1349 1900 0
c ind 1350 1351 1352 1353 1901 1354 1902 1355 1903 1904 0
c ind 1356 1357 1358 1359 1360 1361 1362 1363 1364 1365 0
c ind 1366 1367 1368 1369 1370 1778 1371 1372 1373 1374 0
c ind 1375 1376 1377 1378 1379 1380 1381 1382 1383 1384 0
c ind 1385 1386 1387 1388 1389 1508 1509 1510 1511 1512 0
c ind 1513 1514 1515 1516 1517 1518 1519 1520 1521 1522 0
c ind 1523 1524 1525 1526 1527 1413 1528 1529 1530 1531 0
c ind 1532 1533 1534 1535 1536 1537 1538 1539 1540 1541 0
c ind 1542 1543 1544 1545 1546 1547 1548 1549 1550 1551 0
c ind 1552 1553 1554 1555 1556 1557 1558 1559 1560 1561 0
c ind 1562 1563 1564 1565 1566 1567 1113 1114 1115 1116 0
c ind 1117 1118 1119 1120 1121 1122 1123 1124 1125 1126 0
c ind 1127 1128 1129 1130 1131 1132 1133 1134 1135 1136 0
c ind 1137 1138 1139 1140 1141 1142 1143 0
962 -963 1075 0
962 -963 990 0
-962 963 0
-990 -1075 -962 0
963 -964 -978 -989 0
-963 964 0
-963 978 0
-963 989 0
964 965 -969 0
-964 -965 0
-964 969 0
-966 -1780 965 0
-968 -1780 965 0
-967 -1780 965 0
-965 1780 0
-965 966 967 968 0
966 -1786 1787 1788 0
-966 1786 0
-966 -1788 0
-966 -1787 0
967 1786 1789 1790 0
-967 -1786 0
-967 -1790 0
-967 -1789 0
968 -1781 1782 1783 0
-968 1781 0
-968 -1783 0
-968 -1782 0
969 970 974 -1399 -1829 0
-969 1829 0
-969 -974 0
-969 1399 0
-969 -970 0
971 1830 970 1831 1832 0
-970 -971 0
-970 -1832 0
-970 -1830 0
-970 -1831 0
971 972 -1835 0
971 972 973 -1836 0
-971 -972 0
-971 -973 1835 0
-971 1835 1836 0
972 1833 -1834 0
-972 -1833 0
-972 1834 0
973 1841 1842 0
973 1391 1392 1841 0
-973 -1841 0
-973 -1392 -1842 0
-973 -1391 -1842 0
975 1400 974 1401 1402 0
-974 -975 0
-974 -1402 0
-974 -1400 0
-974 -1401 0
975 976 -1405 0
975 976 977 -1406 0
-975 -976 0
-975 -977 1405 0
-975 1405 1406 0
976 1403 -1404 0
-976 -1403 0
-976 1404 0
977 1411 1412 0
977 1411 1491 1492 0
-977 -1411 0
-977 -1412 -1491 0
-977 -1412 -1492 0
978 -979 982 983 986 0
-978 -986 0
-978 -983 0
-978 979 0
-978 -982 0
979 -980 -981 -1129 -1158 0
-979 981 0
-979 1129 0
-979 980 0
-979 1158 0
980 -1468 -1526 -1555 0
-980 1468 0
-980 1526 0
-980 1555 0
981 -1280 -1309 -1338 -1439 0
-981 1439 0
-981 1280 0
-981 1338 0
-981 1309 0
-1848 1960 982 1961 1962 0
-982 -1962 0
-982 -1961 0
-982 1848 0
-982 -1960 0
-984 -1372 983 -1379 0
-983 1372 0
-983 1379 0
-983 984 0
984 -985 -1380 1381 0
-984 1380 0
-984 -1381 0
-984 985 0
985 1383 -1384 -1385 1386 0
-985 -1383 0
-985 -1386 0
-985 1385 0
-985 1384 0
-987 -988 986 -1361 0
-987 -988 986 -1362 0
-986 988 0
-986 987 0
-986 1361 1362 0
987 1364 1365 1366 1367 0
-987 -1367 0
-987 -1366 0
-987 -1364 0
-987 -1365 0
988 -1358 -1359 -1360 1363 0
-988 1360 0
-988 -1363 0
-988 1358 0
-988 1359 0
989 -1569 -1778 0
989 1413 -1777 0
989 1413 -1569 0
989 -1777 -1778 0
-1413 1778 -989 0
1569 1777 -989 0
990 -991 -1020 -1029 -1056 0
-990 1056 0
-990 991 0
-990 1029 0
-990 1020 0
991 1009 -1772 0
991 992 1009 0
-991 -1009 0
-991 -992 1772 0
992 -993 -979 0
992 1007 -979 0
979 -992 0
-992 993 -1007 0
993 -994 -1006 -1904 0
993 994 -995 -1006 0
-993 1006 0
-993 -994 1904 0
-993 994 995 0
994 1521 -1523 0
-994 -1521 0
-994 1523 0
995 -996 -1903 0
995 996 -997 0
-995 -996 1903 0
-995 996 997 0
996 1375 -1377 0
-996 -1375 0
-996 1377 0
997 998 986 1005 0
997 998 986 -1002 0
-986 -997 0
-997 -998 0
-997 1002 -1005 0
998 -1000 -1351 1848 0
998 999 1351 1848 0
-998 -1848 0
-998 1000 -1351 0
-998 -999 1351 0
999 -1900 -964 0
-999 1900 0
964 -999 0
1000 -1001 1901 0
999 1000 1001 0
-1000 -1001 -1901 0
-999 -1000 1001 0
1001 1947 -1949 0
-1001 -1947 0
-1001 1949 0
1000 1002 -1003 0
-1000 -1002 0
-1002 1003 0
1003 1004 -1960 0
1003 1004 -1961 0
1003 1004 -1962 0
-1003 -1004 0
-1003 1960 1961 1962 0
1004 1968 -1970 0
-1004 -1968 0
-1004 1970 0
1004 1005 -1848 0
1005 -1848 1902 0
-1005 1848 0
-1004 -1005 -1902 0
1006 -1372 1379 0
-1006 1372 0
-1006 -1379 0
1007 1008 -1372 0
995 997 1007 0
997 1007 1008 0
995 1007 -1372 0
-997 -1007 1372 0
-995 -1007 -1008 0
984 1008 -1372 -1379 0
-1008 1372 0
-1008 1379 0
-984 -1008 0
1009 -1010 1910 0
1009 1010 -1910 0
-1009 -1010 -1910 0
-1009 1010 1910 0
1010 -1011 -979 0
1010 1019 -979 0
979 -1010 0
-1010 1011 -1019 0
994 -1006 1011 -1012 0
-994 -1006 1011 -1873 0
1006 -1011 0
994 -1011 1012 0
-994 -1011 1873 0
-996 1012 -1872 0
996 1012 -1013 0
-996 -1012 1872 0
996 -1012 1013 0
1013 1014 986 1018 0
1013 1014 986 -1017 0
-986 -1013 0
-1013 -1014 0
-1013 1017 -1018 0
1014 1015 -1848 1871 0
1004 1014 1015 -1848 0
-1014 1848 0
-1014 -1015 0
-1004 -1014 -1871 0
-1003 1015 1016 0
1003 -1015 0
-1015 -1016 0
-1001 1016 1870 0
964 1001 1016 0
1001 1016 1413 0
-1001 -1016 -1870 0
1001 -1016 -964 -1413 0
1017 1351 -964 -1413 0
1001 1017 -964 -1413 0
964 -1017 0
-1017 1413 0
-1001 -1017 -1351 0
1001 1018 1848 0
1018 1848 1870 0
1018 1351 1848 0
-1018 -1848 0
-1001 -1018 -1351 -1870 0
1012 1019 -1372 0
1008 1013 1019 0
1012 1013 1019 0
1008 1019 -1372 0
-1008 -1012 -1019 0
-1013 -1019 1372 0
1020 -1021 -979 0
1020 1028 -979 0
979 -1020 0
1021 -1028 -1020 0
994 -1006 1021 -1022 0
-994 -1006 1021 -1877 0
1006 -1021 0
994 -1021 1022 0
-994 -1021 1877 0
-996 1022 -1876 0
996 1022 -1023 0
-996 -1022 1876 0
996 -1022 1023 0
1023 1024 986 1027 0
1023 1024 986 -1026 0
-986 -1023 0
-1023 -1024 0
-1023 1026 -1027 0
1024 -1025 -1351 1848 0
964 1024 1351 1848 0
-1024 -1848 0
-1024 1025 -1351 0
-1024 1351 -964 0
964 1001 1025 0
-1001 1025 1874 0
1001 -1025 -964 0
-1001 -1025 -1874 0
-1003 1025 1026 0
1003 -1026 0
-1025 -1026 0
1004 1027 -1848 0
1027 -1848 1875 0
-1027 1848 0
-1004 -1027 -1875 0
1022 1028 -1372 0
1008 1023 1028 0
1022 1023 1028 0
1008 1028 -1372 0
-1008 -1022 -1028 0
-1023 -1028 1372 0
1029 1030 -1044 -1054 1755 0
1029 -1030 -1044 -1054 -1755 0
-1029 1054 0
-1029 1030 -1755 0
-1029 1044 0
-1029 -1030 1755 0
1030 1041 -979 0
1030 1031 -979 -1034 0
979 -1030 0
-1030 -1031 -1041 0
-1030 1034 -1041 0
1031 -1033 -1351 1848 0
1031 1032 1351 1848 0
-1031 -1848 0
-1031 1033 -1351 0
-1031 -1032 1351 0
1032 -1883 -964 0
-1032 1883 0
964 -1032 0
-1001 1033 1884 0
1001 1032 1033 0
-1001 -1033 -1884 0
1001 -1032 -1033 0
1034 1035 -1036 0
-1003 1033 1034 -1036 0
-1034 1036 0
-1033 -1034 -1035 0
1003 -1034 -1035 0
1004 1035 -1848 0
1035 -1848 1885 0
-1035 1848 0
-1004 -1035 -1885 0
1036 1037 986 0
-986 -1036 0
-1036 -1037 0
-996 1037 -1372 0
1037 1038 -1372 0
-1037 1372 0
996 -1037 -1038 0
1038 1039 1040 0
985 1038 1039 -1372 0
-1038 -1039 0
-1038 -1040 1372 0
-985 -1038 -1040 0
-994 1039 1379 0
-1039 -1379 0
994 -1039 0
1040 -1379 -1380 1381 0
-1040 1379 0
-1040 1380 0
-1040 -1381 0
994 1041 1042 0
1006 1041 1042 0
1041 1042 1887 0
-1041 -1042 0
-994 -1006 -1041 -1887 0
-996 1042 -1043 -1886 0
-1042 1886 0
996 -1042 0
-1042 1043 0
-1038 1043 -1372 0
-1043 1372 0
1038 -1043 0
1044 -1049 -1051 0
1044 -1045 -969 -1051 0
-1044 1051 0
969 -1044 1049 0
1045 1049 -1044 0
1045 1046 965 -1048 0
1045 1046 -1048 -1861 0
-1045 1048 0
-1045 -1046 0
-965 -1045 1861 0
1046 -1352 1504 0
1046 1047 1504 0
1046 -1351 1504 0
-1046 -1504 0
-1046 -1047 1351 1352 0
1047 1353 1354 1355 1848 0
-1047 -1848 0
-1047 -1355 0
-1047 -1353 0
-1047 -1354 0
1048 -1863 982 0
1048 -1867 982 0
1048 1861 982 0
-982 -1048 0
-1048 -1861 1863 1867 0
-1046 1049 982 -1869 0
-1046 1049 982 1050 0
1046 -1049 0
-982 -1049 0
-1049 -1050 1869 0
1050 -1861 -969 1863 0
-1050 1861 0
-1050 -1863 0
969 -1050 0
1046 1051 -978 -1052 0
-1046 1051 -978 -1899 0
978 -1051 0
1046 1052 -1051 0
-1046 1899 -1051 0
1052 -1861 -969 0
1052 1053 965 -969 0
969 -1052 0
-1052 -1053 1861 0
-965 -1052 1861 0
1053 1805 1898 0
-1053 -1805 0
-1053 -1898 0
1054 -1055 1735 0
1054 1055 -1735 0
-1054 -1055 -1735 0
-1054 1055 1735 0
-1050 1055 -978 0
978 -1055 0
1050 -1055 0
1056 -1057 -1065 -1764 0
1056 1057 -1065 1764 0
-1056 1065 0
-1056 1057 -1764 0
-1056 -1057 1764 0
1057 1063 -979 0
1057 1058 -979 -1061 0
979 -1057 0
-1057 -1058 -1063 0
-1057 1061 -1063 0
1058 -1060 -1351 1848 0
1058 1059 1351 1848 0
-1058 -1848 0
-1058 1060 -1351 0
-1058 -1059 1351 0
1059 -1892 -964 0
-1059 1892 0
964 -1059 0
-1001 1060 1893 0
1001 1059 1060 0
-1001 -1060 -1893 0
1001 -1059 -1060 0
-1036 1061 1062 0
-1003 -1036 1060 1061 0
1036 -1061 0
1003 -1061 -1062 0
-1060 -1061 -1062 0
1004 1062 -1848 0
1062 -1848 1894 0
-1062 1848 0
-1004 -1062 -1894 0
994 1063 1064 0
1006 1063 1064 0
1063 1064 1896 0
-1063 -1064 0
-994 -1006 -1063 -1896 0
-996 -1043 1064 -1895 0
-1064 1895 0
996 -1064 0
1043 -1064 0
1037 1065 -979 1066 0
1065 1066 -979 1074 0
979 -1065 0
-1065 -1066 0
-1037 -1074 -1065 0
1068 1372 1066 0
996 1067 1066 1068 0
-1066 -1068 0
-1066 -1067 -1372 0
-996 -1066 -1372 0
-994 1067 1379 -1891 0
994 -1067 0
-1067 1891 0
-1067 -1379 0
1068 1069 986 1073 0
1068 1069 986 -1072 0
-986 -1068 0
-1068 -1069 0
-1068 1072 -1073 0
1069 -1071 -1351 1848 0
1069 1070 1351 1848 0
-1069 -1848 0
-1069 1071 -1351 0
-1069 -1070 1351 0
1070 -1778 -964 0
-1070 1778 0
964 -1070 0
-1001 1071 1888 0
1001 1070 1071 0
-1001 -1071 -1888 0
1001 -1070 -1071 0
-1003 1071 1072 0
1003 -1072 0
-1071 -1072 0
1004 1073 -1848 0
1073 -1848 1889 0
-1073 1848 0
-1004 -1073 -1889 0
1067 1074 1890 0
1038 1067 1074 0
-1067 -1074 0
-1038 -1074 -1890 0
1075 -1076 1086 -1750 0
1075 1076 1086 1750 0
-1075 -1086 0
-1075 1076 -1750 0
-1075 -1076 1750 0
1076 -1077 -979 0
1076 1085 -979 0
979 -1076 0
-1076 1077 -1085 0
994 -1006 1077 -1078 0
-994 -1006 1077 -1882 0
1006 -1077 0
994 -1077 1078 0
-994 -1077 1882 0
-996 1078 -1881 0
996 1078 -1079 0
-996 -1078 1881 0
996 -1078 1079 0
1079 1080 986 1084 0
1079 1080 986 -1083 0
-986 -1079 0
-1079 -1080 0
-1079 1083 -1084 0
1080 -1082 -1351 1848 0
1080 1081 1351 1848 0
-1080 -1848 0
-1080 1082 -1351 0
-1080 -1081 1351 0
1081 -1878 -964 0
-1081 1878 0
964 -1081 0
-1001 1082 1879 0
1001 1081 1082 0
-1001 -1082 -1879 0
1001 -1081 -1082 0
-1003 1082 1083 0
1003 -1083 0
-1082 -1083 0
1004 1084 -1848 0
1084 -1848 1880 0
-1084 1848 0
-1004 -1084 -1880 0
1078 1085 -1372 0
1008 1079 1085 0
1078 1079 1085 0
1008 1085 -1372 0
-1008 -1078 -1085 0
-1079 -1085 1372 0
992 1086 -1772 0
-1086 1772 0
-992 -1086 0
1088 -963 1087 0
-1076 2766 1087 -963 0
1076 -2766 1087 -963 0
963 -1087 0
1076 -1087 -1088 2766 0
-1076 -1087 -1088 -2766 0
-992 1088 -1089 -2788 0
992 1088 -1089 2788 0
-1088 1089 0
992 -2788 -1088 0
-992 2788 -1088 0
1010 1089 -1090 -1091 2926 0
-1010 1089 -1090 -1091 -2926 0
-1089 1091 0
1010 -2926 -1089 0
-1089 1090 0
-1010 2926 -1089 0
1090 -1044 -1065 -1020 0
1020 -1090 0
1044 -1090 0
1065 -1090 0
1091 -1092 -1093 2780 0
-1057 1091 -1092 -1093 0
-1091 1093 0
-1091 1092 0
1057 -2780 -1091 0
-1055 1092 2751 0
1055 1092 -2751 0
-1055 -2751 -1092 0
1055 2751 -1092 0
-1030 1057 1093 -2771 0
1030 1057 1093 2771 0
1030 1093 2771 -2780 0
-1030 1093 -2771 -2780 0
1030 -2771 -1093 0
-1030 2771 -1093 0
-1057 2780 -1093 0
-1076 1094 -963 0
990 1094 -963 0
-1086 1094 -963 0
963 -1094 0
-990 1076 1086 -1094 0
1095 1098 -963 0
1020 1095 -963 0
1095 1096 -963 0
963 -1095 0
-1095 -1096 -1020 -1098 0
-1029 1096 -1097 0
1029 -1096 0
-1096 1097 0
-991 1086 1097 0
991 -1097 0
-1086 -1097 0
1057 1098 -1065 0
-1057 -1098 0
1065 -1098 0
-1030 1099 -963 0
1099 1100 -963 0
1097 1099 -963 0
963 -1099 0
1030 -1097 -1099 -1100 0
-1054 1100 -1090 0
1054 -1100 0
1090 -1100 0
-992 1101 -963 0
1101 1102 -963 0
963 -1101 0
992 -1101 -1102 0
1009 -1100 1102 0
-1009 -1102 0
1100 -1102 0
-1010 1103 -963 0
1100 1103 -963 0
963 -1103 0
1010 -1100 -1103 0
1090 1104 -963 0
1055 1104 -963 0
963 -1104 0
-1055 -1104 -1090 0
1090 1105 -963 0
963 -1105 0
-1090 -1105 0
1076 1106 -963 0
990 1106 -963 0
-1086 1106 -963 0
963 -1106 0
-990 -1076 1086 -1106 0
1107 1108 -963 0
1020 1107 -963 0
1096 1107 -963 0
963 -1107 0
-1096 -1107 -1020 -1108 0
-1057 1108 -1065 0
1057 -1108 0
1065 -1108 0
1100 1109 -963 0
1030 1109 -963 0
1097 1109 -963 0
963 -1109 0
-1030 -1097 -1100 -1109 0
1102 1110 -963 0
992 1110 -963 0
963 -1110 0
-992 -1102 -1110 0
1100 1111 -963 0
1010 1111 -963 0
963 -1111 0
-1010 -1100 -1111 0
-1055 1112 -963 0
1090 1112 -963 0
963 -1112 0
1055 -1112 -1090 0
1 962 0
-1 -962 0
2 962 0
-2 -962 0
3 1087 0
-3 -1087 0
109 -1094 0
-109 1094 0
110 -1095 0
-110 1095 0
111 -1099 0
-111 1099 0
112 -1101 0
-112 1101 0
115 -1103 0
-115 1103 0
146 -1104 0
-146 1104 0
385 -1105 0
-385 1105 0
588 -1106 0
-588 1106 0
589 -1107 0
-589 1107 0
590 -1109 0
-590 1109 0
591 -1110 0
-591 1110 0
594 -1111 0
-594 1111 0
625 -1112 0
-625 1112 0
864 -1105 0
-864 1105 0
-109 -588 3251 0
109 -3251 0
588 -3251 0
109 -1750 0
-109 1750 0
-110 -589 3252 0
110 -3252 0
589 -3252 0
110 -1764 0
-110 1764 0
-111 -590 3253 0
111 -3253 0
590 -3253 0
111 -1755 0
-111 1755 0
-112 -591 3254 0
112 -3254 0
591 -3254 0
112 -1772 0
-112 1772 0
-115 -594 3257 0
115 -3257 0
594 -3257 0
115 -1910 0
-115 1910 0
-146 -625 3288 0
146 -3288 0
625 -3288 0
146 -1735 0
-146 1735 0
-385 -864 3527 0
385 -3527 0
864 -3527 0
385 -1976 0
-385 1976 0
-1 0
-2 0
3 0
4 0
5 0
6 0
7 0
8 0
9 0
10 0
11 0
12 0
13 0
14 0
15 0
16 0
17 0
18 0
19 0
20 0
21 0
22 0
23 0
24 0
25 0
26 0
27 0
28 0
29 0
30 0
31 0
32 0
33 0
34 0
35 0
36 0
37 0
38 0
39 0
40 0
41 0
42 0
43 0
44 0
45 0
46 0
47 0
48 0
49 0
50 0
51 0
52 0
53 0
54 0
55 0
56 0
57 0
58 0
59 0
60 0
61 0
62 0
63 0
64 0
65 0
66 0
67 0
68 0
69 0
70 0
71 0
72 0
73 0
74 0
75 0
76 0
77 0
78 0
79 0
80 0
81 0
82 0
83 0
84 0
85 0
86 0
87 0
88 0
89 0
90 0
91 0
92 0
93 0
94 0
95 0
96 0
97 0
98 0
99 0
100 0
101 0
102 0
103 0
104 0
105 0
106 0
107 0
108 0
113 0
114 0
116 0
117 0
118 0
119 0
120 0
121 0
122 0
123 0
124 0
125 0
126 0
127 0
128 0
129 0
130 0
131 0
132 0
133 0
134 0
135 0
136 0
137 0
138 0
139 0
140 0
141 0
142 0
143 0
144 0
145 0
147 0
148 0
149 0
150 0
151 0
152 0
153 0
154 0
155 0
156 0
157 0
158 0
159 0
160 0
161 0
162 0
163 0
164 0
165 0
166 0
167 0
168 0
169 0
170 0
171 0
172 0
173 0
174 0
175 0
176 0
177 0
178 0
179 0
180 0
181 0
182 0
183 0
184 0
185 0
186 0
187 0
188 0
189 0
190 0
191 0
192 0
193 0
194 0
195 0
196 0
197 0
198 0
199 0
200 0
201 0
202 0
203 0
204 0
205 0
206 0
207 0
208 0
209 0
210 0
211 0
212 0
213 0
214 0
215 0
216 0
217 0
218 0
219 0
220 0
221 0
222 0
223 0
224 0
225 0
226 0
227 0
228 0
229 0
230 0
231 0
232 0
233 0
234 0
235 0
236 0
237 0
238 0
239 0
240 0
241 0
242 0
243 0
244 0
245 0
246 0
247 0
248 0
249 0
250 0
251 0
252 0
253 0
254 0
255 0
256 0
257 0
258 0
259 0
260 0
261 0
262 0
263 0
264 0
265 0
266 0
267 0
268 0
269 0
270 0
271 0
272 0
273 0
274 0
275 0
276 0
277 0
278 0
279 0
280 0
281 0
282 0
283 0
284 0
285 0
286 0
287 0
288 0
289 0
290 0
291 0
292 0
293 0
294 0
295 0
296 0
297 0
298 0
299 0
300 0
301 0
302 0
303 0
304 0
305 0
306 0
307 0
308 0
309 0
310 0
311 0
312 0
313 0
314 0
315 0
316 0
317 0
318 0
319 0
320 0
321 0
322 0
323 0
324 0
325 0
326 0
327 0
328 0
329 0
330 0
331 0
-332 0
333 0
334 0
335 0
336 0
337 0
338 0
339 0
340 0
341 0
342 0
343 0
344 0
345 0
346 0
347 0
348 0
349 0
350 0
351 0
352 0
353 0
354 0
355 0
356 0
357 0
358 0
359 0
360 0
361 0
362 0
363 0
364 0
365 0
366 0
367 0
368 0
369 0
370 0
371 0
372 0
373 0
374 0
375 0
376 0
377 0
378 0
379 0
380 0
381 0
382 0
383 0
384 0
-385 0
386 0
387 0
388 0
389 0
390 0
391 0
392 0
393 0
-394 0
395 0
396 0
397 0
398 0
399 0
400 0
401 0
402 0
403 0
404 0
405 0
406 0
407 0
408 0
409 0
410 0
411 0
412 0
413 0
414 0
415 0
416 0
417 0
418 0
419 0
420 0
421 0
-422 0
423 0
424 0
425 0
426 0
427 0
428 0
429 0
430 0
431 0
432 0
433 0
434 0
435 0
436 0
437 0
438 0
439 0
440 0
441 0
442 0
443 0
444 0
445 0
446 0
447 0
448 0
449 0
450 0
451 0
452 0
453 0
454 0
455 0
456 0
457 0
458 0
459 0
460 0
461 0
462 0
463 0
464 0
465 0
466 0
467 0
468 0
469 0
470 0
471 0
472 0
473 0
474 0
475 0
476 0
477 0
478 0
479 0
480 0
481 0
482 0
-483 0
-484 0
-485 0
-486 0
-487 0
-488 0
-489 0
-490 0
-491 0
-492 0
-493 0
-494 0
-495 0
-496 0
-497 0
-498 0
-499 0
-500 0
-501 0
-502 0
-503 0
-504 0
-505 0
-506 0
-507 0
-508 0
-509 0
-510 0
-511 0
-512 0
-513 0
-514 0
-515 0
-516 0
-517 0
-518 0
-519 0
-520 0
-521 0
-522 0
-523 0
-524 0
-525 0
-526 0
-527 0
-528 0
-529 0
-530 0
-531 0
-532 0
-533 0
-534 0
-535 0
-536 0
-537 0
-538 0
-539 0
-540 0
-541 0
-542 0
-543 0
-544 0
-545 0
-546 0
-547 0
-548 0
-549 0
-550 0
-551 0
-552 0
-553 0
-554 0
-555 0
-556 0
-557 0
-558 0
-559 0
-560 0
-561 0
-562 0
-563 0
-564 0
-565 0
-566 0
-567 0
-568 0
-569 0
-570 0
-571 0
-572 0
-573 0
-574 0
-575 0
-576 0
-577 0
-578 0
-579 0
-580 0
-581 0
-582 0
-583 0
-584 0
-585 0
-586 0
-587 0
-592 0
-593 0
-595 0
-596 0
-597 0
-598 0
-599 0
-600 0
-601 0
-602 0
-603 0
-604 0
-605 0
-606 0
-607 0
-608 0
-609 0
-610 0
-611 0
-612 0
-613 0
-614 0
-615 0
-616 0
-617 0
-618 0
-619 0
-620 0
-621 0
-622 0
-623 0
-624 0
-626 0
-627 0
-628 0
-629 0
-630 0
-631 0
-632 0
-633 0
-634 0
-635 0
-636 0
-637 0
-638 0
-639 0
-640 0
-641 0
-642 0
-643 0
-644 0
-645 0
-646 0
-647 0
-648 0
-649 0
-650 0
-651 0
-652 0
-653 0
-654 0
-655 0
-656 0
-657 0
-658 0
-659 0
-660 0
-661 0
-662 0
-663 0
-664 0
-665 0
-666 0
-667 0
-668 0
-669 0
-670 0
-671 0
-672 0
-673 0
-674 0
-675 0
-676 0
-677 0
-678 0
-679 0
-680 0
-681 0
-682 0
-683 0
-684 0
-685 0
-686 0
-687 0
-688 0
-689 0
-690 0
-691 0
-692 0
-693 0
-694 0
-695 0
-696 0
-697 0
-698 0
-699 0
-700 0
-701 0
-702 0
-703 0
-704 0
-705 0
-706 0
-707 0
-708 0
-709 0
-710 0
-711 0
-712 0
-713 0
-714 0
-715 0
-716 0
-717 0
-718 0
-719 0
-720 0
-721 0
-722 0
-723 0
-724 0
-725 0
-726 0
-727 0
-728 0
-729 0
-730 0
-731 0
-732 0
-733 0
-734 0
-735 0
-736 0
-737 0
-738 0
-739 0
-740 0
-741 0
-742 0
-743 0
-744 0
-745 0
-746 0
-747 0
-748 0
-749 0
-750 0
-751 0
-752 0
-753 0
-754 0
-755 0
-756 0
-757 0
-758 0
-759 0
-760 0
-761 0
-762 0
-763 0
-764 0
-765 0
-766 0
-767 0
-768 0
-769 0
-770 0
-771 0
-772 0
-773 0
-774 0
-775 0
-776 0
-777 0
-778 0
-779 0
-780 0
-781 0
-782 0
-783 0
-784 0
-785 0
-786 0
-787 0
-788 0
-789 0
-790 0
-791 0
-792 0
-793 0
-794 0
-795 0
-796 0
-797 0
-798 0
-799 0
-800 0
-801 0
-802 0
-803 0
-804 0
-805 0
-806 0
-807 0
-808 0
-809 0
-810 0
811 0
-812 0
-813 0
-814 0
-815 0
-816 0
-817 0
-818 0
-819 0
-820 0
-821 0
-822 0
-823 0
-824 0
-825 0
-826 0
-827 0
-828 0
-829 0
-830 0
-831 0
-832 0
-833 0
-834 0
-835 0
-836 0
-837 0
-838 0
-839 0
-840 0
-841 0
-842 0
-843 0
-844 0
-845 0
-846 0
-847 0
-848 0
-849 0
-850 0
-851 0
-852 0
-853 0
-854 0
-855 0
-856 0
-857 0
-858 0
-859 0
-860 0
-861 0
-862 0
-863 0
-864 0
-865 0
-866 0
-867 0
-868 0
-869 0
-870 0
-871 0
-872 0
873 0
-874 0
-875 0
-876 0
-877 0
-878 0
-879 0
-880 0
-881 0
-882 0
-883 0
-884 0
-885 0
-886 0
-887 0
-888 0
-889 0
-890 0
-891 0
-892 0
-893 0
-894 0
-895 0
-896 0
-897 0
-898 0
-899 0
-900 0
901 0
-902 0
-903 0
-904 0
-905 0
-906 0
-907 0
-908 0
-909 0
-910 0
-911 0
-912 0
-913 0
-914 0
-915 0
-916 0
-917 0
-918 0
-919 0
-920 0
-921 0
-922 0
-923 0
-924 0
-925 0
-926 0
-927 0
-928 0
-929 0
-930 0
-931 0
-932 0
-933 0
-934 0
-935 0
-936 0
-937 0
-938 0
-939 0
-940 0
-941 0
-942 0
-943 0
-944 0
-945 0
-946 0
-947 0
-948 0
-949 0
-950 0
-951 0
-952 0
-953 0
-954 0
-955 0
-956 0
-957 0
-958 0
-959 0
-960 0
-961 0
962 0
963 0
964 0
-965 0
969 0
-970 0
-974 0
978 0
979 0
980 0
981 0
-982 0
-983 0
-986 0
989 0
1020 0
1044 0
1051 0
1065 0
-1066 0
-1087 0
1088 0
1089 0
1090 0
1091 0
1092 0
1093 0
-1105 0
1129 0
1158 0
1182 0
1183 0
1184 0
1185 0
1186 0
1187 0
1188 0
1189 0
1190 0
1191 0
1192 0
1193 0
1194 0
1195 0
1196 0
1197 0
1198 0
1199 0
1200 0
1201 0
1202 0
1203 0
1204 0
1205 0
1206 0
1207 0
1208 0
1209 0
1210 0
1211 0
1212 0
1213 0
1214 0
1215 0
1216 0
1217 0
1218 0
1219 0
1220 0
-1221 0
1222 0
1223 0
1224 0
1225 0
1226 0
1227 0
1228 0
1229 0
1230 0
1231 0
1232 0
1233 0
1234 0
1235 0
1236 0
1237 0
1238 0
1239 0
1240 0
1241 0
1242 0
1243 0
1244 0
1245 0
1246 0
1247 0
1248 0
-1249 0
1250 0
1251 0
1252 0
1253 0
1254 0
1255 0
1256 0
1257 0
1258 0
1259 0
1260 0
1261 0
1262 0
1263 0
1264 0
1265 0
1266 0
1267 0
1268 0
1269 0
1270 0
1271 0
1272 0
1273 0
1274 0
1280 0
1309 0
1338 0
1399 0
1439 0
1468 0
1526 0
1555 0
1570 0
1571 0
1572 0
1573 0
1574 0
1575 0
1576 0
1577 0
1578 0
1579 0
1580 0
1581 0
1582 0
1583 0
1584 0
1585 0
1586 0
1587 0
1588 0
1589 0
1590 0
1591 0
1592 0
1593 0
1594 0
1595 0
1596 0
1597 0
1598 0
1599 0
1600 0
1601 0
1602 0
1603 0
1604 0
1605 0
1606 0
1607 0
1608 0
1609 0
1610 0
1611 0
1612 0
1613 0
1614 0
1615 0
1616 0
1617 0
1618 0
1619 0
1620 0
1621 0
1622 0
1623 0
1624 0
1625 0
1626 0
1627 0
1628 0
1629 0
1630 0
1631 0
1632 0
1633 0
1634 0
1635 0
1636 0
1637 0
1638 0
1639 0
1640 0
1641 0
1642 0
1643 0
1644 0
1645 0
1646 0
1647 0
1648 0
1649 0
1650 0
1651 0
1652 0
1653 0
1654 0
1655 0
1656 0
1657 0
1658 0
1659 0
1660 0
1661 0
1662 0
1663 0
1664 0
1665 0
1666 0
1667 0
1668 0
1669 0
1670 0
1671 0
1672 0
1673 0
1674 0
1675 0
1676 0
1677 0
1678 0
1679 0
1680 0
1681 0
1682 0
1683 0
1684 0
1685 0
1686 0
1687 0
1688 0
1689 0
1690 0
1691 0
1692 0
1693 0
1694 0
1695 0
1696 0
1697 0
1698 0
1699 0
1700 0
1701 0
1702 0
1703 0
1704 0
1705 0
1706 0
1707 0
1708 0
1709 0
1710 0
1711 0
1712 0
1713 0
1714 0
1715 0
1716 0
1717 0
1718 0
1719 0
1720 0
1721 0
1722 0
1723 0
1724 0
1725 0
1726 0
1727 0
1728 0
1729 0
1730 0
1731 0
1732 0
1733 0
1734 0
1736 0
1737 0
1738 0
1739 0
1740 0
1741 0
1742 0
1743 0
1744 0
1745 0
1746 0
1747 0
1748 0
1749 0
1751 0
1752 0
1753 0
1754 0
1756 0
1757 0
1758 0
1759 0
1760 0
1761 0
1762 0
1763 0
1765 0
1766 0
1767 0
1768 0
1769 0
1770 0
1771 0
1773 0
1774 0
1775 0
1776 0
1829 0
-1905 0
1906 0
1907 0
1908 0
1909 0
1911 0
1912 0
1913 0
1914 0
1915 0
1916 0
1917 0
1918 0
1919 0
1920 0
1921 0
1922 0
1923 0
1924 0
1925 0
1926 0
1927 0
1928 0
1974 0
1975 0
-1976 0
1977 0
1978 0
1979 0
1980 0
1981 0
1982 0
1983 0
1984 0
1985 0
1986 0
1987 0
1988 0
1989 0
1990 0
1991 0
1992 0
1993 0
1994 0
1995 0
1996 0
1997 0
1998 0
1999 0
2000 0
2001 0
2002 0
2003 0
2004 0
2005 0
2006 0
2007 0
2008 0
2009 0
2010 0
2011 0
2012 0
2013 0
2014 0
2015 0
2016 0
2017 0
2018 0
2019 0
2020 0
2021 0
2022 0
2023 0
2024 0
2025 0
2026 0
2027 0
2028 0
2029 0
2030 0
2031 0
2032 0
2033 0
2034 0
2035 0
2036 0
2037 0
2038 0
2039 0
2040 0
2041 0
2042 0
2043 0
2044 0
2045 0
2046 0
2047 0
2048 0
2049 0
2050 0
2051 0
2052 0
2053 0
2054 0
2055 0
2056 0
2057 0
2058 0
2059 0
2060 0
2061 0
2062 0
2063 0
2064 0
2065 0
2066 0
2067 0
2068 0
2069 0
2070 0
2071 0
2072 0
2073 0
2074 0
2075 0
2076 0
2077 0
2078 0
2079 0
2080 0
2081 0
2082 0
2083 0
2084 0
2085 0
2086 0
2087 0
2088 0
2089 0
2090 0
2091 0
2092 0
2093 0
2094 0
2095 0
2096 0
2097 0
2098 0
2099 0
2100 0
2101 0
2102 0
2103 0
2104 0
2105 0
2106 0
2107 0
2108 0
2109 0
2110 0
2111 0
2112 0
2113 0
2114 0
2115 0
2116 0
2117 0
2118 0
2119 0
2120 0
2121 0
2122 0
2123 0
2124 0
2125 0
2126 0
2127 0
2128 0
3145 0
-3146 0
-3147 0
-3148 0
-3149 0
-3150 0
-3151 0
-3152 0
-3153 0
-3154 0
-3155 0
-3156 0
-3157 0
-3158 0
-3159 0
-3160 0
-3161 0
-3162 0
-3163 0
-3164 0
-3165 0
-3166 0
-3167 0
-3168 0
-3169 0
-3170 0
-3171 0
-3172 0
-3173 0
-3174 0
-3175 0
-3176 0
-3177 0
-3178 0
-3179 0
-3180 0
-3181 0
-3182 0
-3183 0
-3184 0
-3185 0
-3186 0
-3187 0
-3188 0
-3189 0
-3190 0
-3191 0
-3192 0
-3193 0
-3194 0
-3195 0
-3196 0
-3197 0
-3198 0
-3199 0
-3200 0
-3201 0
-3202 0
-3203 0
-3204 0
-3205 0
-3206 0
-3207 0
-3208 0
-3209 0
-3210 0
-3211 0
-3212 0
-3213 0
-3214 0
-3215 0
-3216 0
-3217 0
-3218 0
-3219 0
-3220 0
-3221 0
-3222 0
-3223 0
-3224 0
-3225 0
-3226 0
-3227 0
-3228 0
-3229 0
-3230 0
-3231 0
-3232 0
-3233 0
-3234 0
-3235 0
-3236 0
-3237 0
-3238 0
-3239 0
-3240 0
-3241 0
-3242 0
-3243 0
-3244 0
-3245 0
-3246 0
-3247 0
-3248 0
-3249 0
-3250 0
-3255 0
-3256 0
-3258 0
-3259 0
-3260 0
-3261 0
-3262 0
-3263 0
-3264 0
-3265 0
-3266 0
-3267 0
-3268 0
-3269 0
-3270 0
-3271 0
-3272 0
-3273 0
-3274 0
-3275 0
-3276 0
-3277 0
-3278 0
-3279 0
-3280 0
-3281 0
-3282 0
-3283 0
-3284 0
-3285 0
-3286 0
-3287 0
-3289 0
-3290 0
-3291 0
-3292 0
-3293 0
-3294 0
-3295 0
-3296 0
-3297 0
-3298 0
-3299 0
-3300 0
-3301 0
-3302 0
-3303 0
-3304 0
-3305 0
-3306 0
-3307 0
-3308 0
-3309 0
-3310 0
-3311 0
-3312 0
-3313 0
-3314 0
-3315 0
-3316 0
-3317 0
-3318 0
-3319 0
-3320 0
-3321 0
-3322 0
-3323 0
-3324 0
-3325 0
-3326 0
-3327 0
-3328 0
-3329 0
-3330 0
-3331 0
-3332 0
-3333 0
-3334 0
-3335 0
-3336 0
-3337 0
-3338 0
-3339 0
-3340 0
-3341 0
-3342 0
-3343 0
-3344 0
-3345 0
-3346 0
-3347 0
-3348 0
-3349 0
-3350 0
-3351 0
-3352 0
-3353 0
-3354 0
-3355 0
-3356 0
-3357 0
-3358 0
-3359 0
-3360 0
-3361 0
-3362 0
-3363 0
-3364 0
-3365 0
-3366 0
-3367 0
-3368 0
-3369 0
-3370 0
-3371 0
-3372 0
-3373 0
-3374 0
-3375 0
-3376 0
-3377 0
-3378 0
-3379 0
-3380 0
-3381 0
-3382 0
-3383 0
-3384 0
-3385 0
-3386 0
-3387 0
-3388 0
-3389 0
-3390 0
-3391 0
-3392 0
-3393 0
-3394 0
-3395 0
-3396 0
-3397 0
-3398 0
-3399 0
-3400 0
-3401 0
-3402 0
-3403 0
-3404 0
-3405 0
-3406 0
-3407 0
-3408 0
-3409 0
-3410 0
-3411 0
-3412 0
-3413 0
-3414 0
-3415 0
-3416 0
-3417 0
-3418 0
-3419 0
-3420 0
-3421 0
-3422 0
-3423 0
-3424 0
-3425 0
-3426 0
-3427 0
-3428 0
-3429 0
-3430 0
-3431 0
-3432 0
-3433 0
-3434 0
-3435 0
-3436 0
-3437 0
-3438 0
-3439 0
-3440 0
-3441 0
-3442 0
-3443 0
-3444 0
-3445 0
-3446 0
-3447 0
-3448 0
-3449 0
-3450 0
-3451 0
-3452 0
-3453 0
-3454 0
-3455 0
-3456 0
-3457 0
-3458 0
-3459 0
-3460 0
-3461 0
-3462 0
-3463 0
-3464 0
-3465 0
-3466 0
-3467 0
-3468 0
-3469 0
-3470 0
-3471 0
-3472 0
-3473 0
-3474 0
-3475 0
-3476 0
-3477 0
-3478 0
-3479 0
-3480 0
-3481 0
-3482 0
-3483 0
-3484 0
-3485 0
-3486 0
-3487 0
-3488 0
-3489 0
-3490 0
-3491 0
-3492 0
-3493 0
-3494 0
-3495 0
-3496 0
-3497 0
-3498 0
-3499 0
-3500 0
-3501 0
-3502 0
-3503 0
-3504 0
-3505 0
-3506 0
-3507 0
-3508 0
-3509 0
-3510 0
-3511 0
-3512 0
-3513 0
-3514 0
-3515 0
-3516 0
-3517 0
-3518 0
-3519 0
-3520 0
-3521 0
-3522 0
-3523 0
-3524 0
-3525 0
-3526 0
-3527 0
-3528 0
-3529 0
-3530 0
-3531 0
-3532 0
-3533 0
-3534 0
-3535 0
-3536 0
-3537 0
-3538 0
-3539 0
-3540 0
-3541 0
-3542 0
-3543 0
-3544 0
-3545 0
-3546 0
-3547 0
-3548 0
-3549 0
-3550 0
-3551 0
-3552 0
-3553 0
-3554 0
-3555 0
-3556 0
-3557 0
-3558 0
-3559 0
-3560 0
-3561 0
-3562 0
-3563 0
-3564 0
-3565 0
-3566 0
-3567 0
-3568 0
-3569 0
-3570 0
-3571 0
-3572 0
-3573 0
-3574 0
-3575 0
-3576 0
-3577 0
-3578 0
-3579 0
-3580 0
-3581 0
-3582 0
-3583 0
-3584 0
-3585 0
-3586 0
-3587 0
-3588 0
-3589 0
-3590 0
-3591 0
-3592 0
-3593 0
-3594 0
-3595 0
-3596 0
-3597 0
-3598 0
-3599 0
-3600 0
-3601 0
-3602 0
-3603 0
-3604 0
-3605 0
-3606 0
-3607 0
-3608 0
-3609 0
-3610 0
-3611 0
-3612 0
-3613 0
-3614 0
-3615 0
-3616 0
-3617 0
-3618 0
-3619 0
-3620 0
-3621 0
-3622 0
-3623 0
-3624 0
-2160 0
-2161 0
-2162 0
-2163 0
-2164 0
-2165 0
-2166 0
-2167 0
-2168 0
-2169 0
-2170 0
-2171 0
-2172 0
-2173 0
-2174 0
-2175 0
-2176 0
-2177 0
-2178 0
-2179 0
-2180 0
-2181 0
-2182 0
-2183 0
-2184 0
-2185 0
-2186 0
-2187 0
-2188 0
-2189 0
-2190 0
-2191 0
-2192 0
-2193 0
-2194 0
-2195 0
-2196 0
-2197 0
-2291 0
-2292 0
-2293 0
-2294 0
-2295 0
-2296 0
-2297 0
-2298 0
-2299 0
-2300 0
-2301 0
-2302 0
-2303 0
-2304 0
-2305 0
-2306 0
-2307 0
-2308 0
-2309 0
-2310 0
-2311 0
-2312 0
-2313 0
-2314 0
-2315 0
-2316 0
-2317 0
-2318 0
-2319 0
-2320 0
-2321 0
-2322 0
-2323 0
-2324 0
-2325 0
-2326 0
-2327 0
-2328 0
-2329 0
-2330 0
-2331 0
-2332 0
-2333 0
-2334 0
-2335 0
-2336 0
-2337 0
-2338 0
-2339 0
-2340 0
-2341 0
-2342 0
-2343 0
-2344 0
-2345 0
-2346 0
-2347 0
-2348 0
-2349 0
-2350 0
-2351 0
-2352 0
-2353 0
-2354 0
-2355 0
-2356 0
-2357 0
-2358 0
-2359 0
-2432 0
-2433 0
-2434 0
-2435 0
-2436 0
-2437 0
-2438 0
-2439 0
-2440 0
-2441 0
-2442 0
-2443 0
-2444 0
-2445 0
-2446 0
-2447 0
-2448 0
-2449 0
-2450 0
-2451 0
-2452 0
-2453 0
-2454 0
-2455 0
-2456 0
-2457 0
-2458 0
-2459 0
-2460 0
-2461 0
-2462 0
-2463 0
-2464 0
-2465 0
-2466 0
-2467 0
-2468 0
-2469 0
-2470 0
-2471 0
-2472 0
-2473 0
-2474 0
-2475 0
-2476 0
-2477 0
-2478 0
-2479 0
-2480 0
-2481 0
-2482 0
-2483 0
-2484 0
-2485 0
-2486 0
-2487 0
-2488 0
-2489 0
-2490 0
-2491 0
-2492 0
-2493 0
-2494 0
-2495 0
-2496 0
-2497 0
-2498 0
-2499 0
-2500 0
-2865 0
-2866 0
-2867 0
-2868 0
-2869 0
-2870 0
-2871 0
-2872 0
-2873 0
-2874 0
-2875 0
-2876 0
-2877 0
-2878 0
-2879 0
-2880 0
-2881 0
-2882 0
-2864 0
-2883 0
-2884 0
-2430 0
-2431 0
-2818 0
-2819 0
-2885 0
-2820 0
-2821 0
-2822 0
-2823 0
-2824 0
-2825 0
-2826 0
-2827 0
-2828 0
-2829 0
-2830 0
-2831 0
-2832 0
-2833 0
-2834 0
-2835 0
-2836 0
-2837 0
-2838 0
-2839 0
-2840 0
-2795 0
-2886 0
-2887 0
-2796 0
-2797 0
-2798 0
-2888 0
-2799 0
-2889 0
-2800 0
-2801 0
-2802 0
-2803 0
-2804 0
-2805 0
-2806 0
-2584 0
-2807 0
-2808 0
-2809 0
-2810 0
-2811 0
-2812 0
-2813 0
-2814 0
-2815 0
-2816 0
-2890 0
-2891 0
-2817 0
-2841 0
-2892 0
-2842 0
-2893 0
-2843 0
-2844 0
-2845 0
-2846 0
-2847 0
-2848 0
-2849 0
-2850 0
-2851 0
-2852 0
-2853 0
-2854 0
-2855 0
-2856 0
-2894 0
-2857 0
-2858 0
-2859 0
-2860 0
-2861 0
-2862 0
-2863 0
-2895 0
-2896 0
-2406 0
-2897 0
-2407 0
-2898 0
-2408 0
-2409 0
-2410 0
-2411 0
-2412 0
-2585 0
-2413 0
-2414 0
-2415 0
-2416 0
-2417 0
-2418 0
-2419 0
-2420 0
-2421 0
-2899 0
-2422 0
-2423 0
-2424 0
-2425 0
-2426 0
-2900 0
-2427 0
-2901 0
-2428 0
-2501 0
-2502 0
-2503 0
-2902 0
-2903 0
-2504 0
-2505 0
-2506 0
-2507 0
-2508 0
-2509 0
-2510 0
-2511 0
-2512 0
-2513 0
-2514 0
-2515 0
-2516 0
-2517 0
-2518 0
-2904 0
-2519 0
-2905 0
-2520 0
-2521 0
-2522 0
-2906 0
-2523 0
-2907 0
-2945 0
-2793 0
-2946 0
-2947 0
-2948 0
-2949 0
-2950 0
-2951 0
-2952 0
-2953 0
-2954 0
-2955 0
-2956 0
-2957 0
-2958 0
-2908 0
-2959 0
-2960 0
-2961 0
-2909 0
-2962 0
-2910 0
-2963 0
-2964 0
-2911 0
-2912 0
-2965 0
-2966 0
-2967 0
-2968 0
-2969 0
-2970 0
-2971 0
-2972 0
-2973 0
-2974 0
-2975 0
-2976 0
-2913 0
-2914 0
-2977 0
-2978 0
-2979 0
-2980 0
-2915 0
-2981 0
-2982 0
-2983 0
-2984 0
-2985 0
-2986 0
-2987 0
-2988 0
-2989 0
-2360 0
-2361 0
-2362 0
-2363 0
-2364 0
-2365 0
-2916 0
-2366 0
-2367 0
-2368 0
-2369 0
-2917 0
-2370 0
-2918 0
-2371 0
-2919 0
-2920 0
-2372 0
-2373 0
-2374 0
-2375 0
-2376 0
-2377 0
-2378 0
-2379 0
-2380 0
-2381 0
-2382 0
-2383 0
-2384 0
-2385 0
-2386 0
-2794 0
-2387 0
-2388 0
-2389 0
-2390 0
-2391 0
-2392 0
-2393 0
-2394 0
-2395 0
-2396 0
-2397 0
-2398 0
-2399 0
-2400 0
-2401 0
-2402 0
-2403 0
-2404 0
-2405 0
-2524 0
-2525 0
-2526 0
-2527 0
-2528 0
-2529 0
-2530 0
-2531 0
-2532 0
-2533 0
-2534 0
-2535 0
-2536 0
-2537 0
-2538 0
-2539 0
-2540 0
-2541 0
-2542 0
-2543 0
-2429 0
-2544 0
-2545 0
-2546 0
-2547 0
-2548 0
-2549 0
-2550 0
-2551 0
-2552 0
-2553 0
-2554 0
-2555 0
-2556 0
-2557 0
-2558 0
-2559 0
-2560 0
-2561 0
-2562 0
-2563 0
-2564 0
-2565 0
-2566 0
-2567 0
-2568 0
-2569 0
-2570 0
-2571 0
-2572 0
-2573 0
-2574 0
-2575 0
-2576 0
-2577 0
-2578 0
-2579 0
-2580 0
-2581 0
-2582 0
-2583 0
-2129 0
-2130 0
-2131 0
-2132 0
-2133 0
-2134 0
-2135 0
-2136 0
-2137 0
-2138 0
-2139 0
-2140 0
-2141 0
-2142 0
-2143 0
-2144 0
-2145 0
-2146 0
-2147 0
-2148 0
-2149 0
-2150 0
-2151 0
-2152 0
-2153 0
-2154 0
-2155 0
-2156 0
-2157 0
-2158 0
-2159 0

